p cnf 612 888
-51 6 2 167 0
-51 6 2 -167 0
30 -20 -98 168 0
30 -20 -98 -168 0
-32 -116 89 169 0
-32 -116 89 -169 0
-36 -152 111 170 0
-36 -152 111 -170 0
-72 -163 112 171 0
-72 -163 112 -171 0
42 -68 79 172 0
42 -68 79 -172 0
31 -132 79 173 0
31 -132 79 -173 0
-69 -123 125 174 0
-69 -123 125 -174 0
24 -161 -120 175 0
24 -161 -120 -175 0
-105 21 -39 176 0
-105 21 -39 -176 0
-74 -110 146 177 0
-74 -110 146 -177 0
-81 -27 -163 178 0
-81 -27 -163 -178 0
-125 73 -76 179 0
-125 73 -76 -179 0
30 -115 -109 180 0
30 -115 -109 -180 0
-67 -13 -104 181 0
-67 -13 -104 -181 0
108 -70 89 182 0
108 -70 89 -182 0
78 106 -40 183 0
78 106 -40 -183 0
102 112 -108 184 0
102 112 -108 -184 0
149 -14 65 185 0
149 -14 65 -185 0
-53 115 -8 186 0
-53 115 -8 -186 0
-26 -28 -46 187 0
-26 -28 -46 -187 0
113 92 -54 188 0
113 92 -54 -188 0
-150 -128 -37 189 0
-150 -128 -37 -189 0
-5 103 71 190 0
-5 103 71 -190 0
-118 94 14 191 0
-118 94 14 -191 0
-99 137 81 192 0
-99 137 81 -192 0
139 13 59 193 0
139 13 59 -193 0
96 -29 -145 194 0
96 -29 -145 -194 0
6 -110 -154 195 0
6 -110 -154 -195 0
10 -23 131 196 0
10 -23 131 -196 0
-11 33 160 197 0
-11 33 160 -197 0
68 1 126 198 0
68 1 126 -198 0
90 82 47 199 0
90 82 47 -199 0
148 166 -107 200 0
148 166 -107 -200 0
-61 -139 71 201 0
-61 -139 71 -201 0
9 -26 -69 202 0
9 -26 -69 -202 0
-103 -71 -5 203 0
-103 -71 -5 -203 0
-104 13 67 204 0
-104 13 67 -204 0
-124 11 58 205 0
-124 11 58 -205 0
-12 -65 -114 206 0
-12 -65 -114 -206 0
-73 -7 -97 207 0
-73 -7 -97 -207 0
74 -110 -146 208 0
74 -110 -146 -208 0
-14 -94 -118 209 0
-14 -94 -118 -209 0
-35 -22 -7 210 0
-35 -22 -7 -210 0
-30 109 -115 211 0
-30 109 -115 -211 0
-2 -51 -6 212 0
-2 -51 -6 -212 0
-155 -100 164 213 0
-155 -100 164 -213 0
-58 76 -138 214 0
-58 76 -138 -214 0
125 123 69 215 0
125 123 69 -215 0
-93 -2 80 216 0
-93 -2 80 -216 0
91 -43 -17 217 0
91 -43 -17 -217 0
101 117 122 218 0
101 117 122 -218 0
25 -137 -120 219 0
25 -137 -120 -219 0
-57 -59 -94 220 0
-57 -59 -94 -220 0
70 -24 -47 221 0
70 -24 -47 -221 0
41 18 -67 222 0
41 18 -67 -222 0
51 86 149 223 0
51 86 149 -223 0
-91 16 21 224 0
-91 16 21 -224 0
127 119 -118 225 0
127 119 -118 -225 0
5 -103 71 226 0
5 -103 71 -226 0
57 35 107 227 0
57 35 107 -227 0
-114 -88 155 228 0
-114 -88 155 -228 0
-92 131 -48 229 0
-92 131 -48 -229 0
-70 24 -47 230 0
-70 24 -47 -230 0
-63 -84 -85 231 0
-63 -84 -85 -231 0
128 43 -123 232 0
128 43 -123 -232 0
57 -59 94 233 0
57 -59 94 -233 0
-28 122 -44 234 0
-28 122 -44 -234 0
-45 -15 -62 235 0
-45 -15 -62 -235 0
-63 -19 25 236 0
-63 -19 25 -236 0
45 -75 -54 237 0
45 -75 -54 -237 0
136 153 22 238 0
136 153 22 -238 0
83 -136 56 239 0
83 -136 56 -239 0
55 133 -134 240 0
55 133 -134 -240 0
-108 -89 -70 241 0
-108 -89 -70 -241 0
94 59 -57 242 0
94 59 -57 -242 0
92 -131 -48 243 0
92 -131 -48 -243 0
46 -28 26 244 0
46 -28 26 -244 0
74 -78 -18 245 0
74 -78 -18 -245 0
144 42 -165 246 0
144 42 -165 -246 0
88 -56 -127 247 0
88 -56 -127 -247 0
91 -21 16 248 0
91 -21 16 -248 0
110 6 154 249 0
110 6 154 -249 0
82 -90 -47 250 0
82 -90 -47 -250 0
147 -1 50 251 0
147 -1 50 -251 0
43 91 17 252 0
43 91 17 -252 0
-95 60 16 253 0
-95 60 16 -253 0
26 69 9 254 0
26 69 9 -254 0
10 150 130 255 0
10 150 130 -255 0
79 68 -42 256 0
79 68 -42 -256 0
48 -131 -92 257 0
48 -131 -92 -257 0
124 29 119 258 0
124 29 119 -258 0
-112 72 -163 259 0
-112 72 -163 -259 0
142 -143 -49 260 0
142 -143 -49 -260 0
155 114 88 261 0
155 114 88 -261 0
-107 57 -35 262 0
-107 57 -35 -262 0
-116 -36 129 263 0
-116 -36 129 -263 0
-96 -145 29 264 0
-96 -145 29 -264 0
-42 144 165 265 0
-42 144 165 -265 0
32 154 23 266 0
32 154 23 -266 0
34 -106 -52 267 0
34 -106 -52 -267 0
156 -87 -33 268 0
156 -87 -33 -268 0
-101 -143 -132 269 0
-101 -143 -132 -269 0
-86 -51 149 270 0
-86 -51 149 -270 0
-133 117 31 271 0
-133 117 31 -271 0
121 104 55 272 0
121 104 55 -272 0
-6 110 -154 273 0
-6 110 -154 -273 0
122 -101 -117 274 0
122 -101 -117 -274 0
-80 -53 -129 275 0
-80 -53 -129 -275 0
12 -72 126 276 0
12 -72 126 -276 0
163 81 -27 277 0
163 81 -27 -277 0
-151 159 95 278 0
-151 159 95 -278 0
-38 -62 -83 279 0
-38 -62 -83 -279 0
-120 137 -25 280 0
-120 137 -25 -280 0
-93 -80 2 281 0
-93 -80 2 -281 0
56 136 -83 282 0
56 136 -83 -282 0
104 -55 -121 283 0
104 -55 -121 -283 0
-39 -52 147 284 0
-39 -52 147 -284 0
-130 150 -10 285 0
-130 150 -10 -285 0
140 113 -50 286 0
140 113 -50 -286 0
-135 -20 34 287 0
-135 -20 34 -287 0
56 127 88 288 0
56 127 88 -288 0
124 58 -11 289 0
124 58 -11 -289 0
-131 23 10 290 0
-131 23 10 -290 0
87 33 156 291 0
87 33 156 -291 0
-128 43 123 292 0
-128 43 123 -292 0
162 -141 -98 293 0
162 -141 -98 -293 0
89 70 -108 294 0
89 70 -108 -294 0
69 -123 -125 295 0
69 -123 -125 -295 0
54 75 45 296 0
54 75 45 -296 0
37 142 -156 297 0
37 142 -156 -297 0
-53 8 -115 298 0
-53 8 -115 -298 0
20 30 98 299 0
20 30 98 -299 0
-14 94 118 300 0
-14 94 118 -300 0
47 -70 -24 301 0
47 -70 -24 -301 0
95 -16 60 302 0
95 -16 60 -302 0
85 -63 84 303 0
85 -63 84 -303 0
31 132 -79 304 0
31 132 -79 -304 0
97 -103 -64 305 0
97 -103 -64 -305 0
-8 105 -157 306 0
-8 105 -157 -306 0
-156 -37 -142 307 0
-156 -37 -142 -307 0
75 -45 -54 308 0
75 -45 -54 -308 0
-40 84 -64 309 0
-40 84 -64 -309 0
152 36 111 310 0
152 36 111 -310 0
75 -96 4 311 0
75 -96 4 -311 0
-34 20 -135 312 0
-34 20 -135 -312 0
-160 11 33 313 0
-160 11 33 -313 0
39 52 147 314 0
39 52 147 -314 0
17 -43 -91 315 0
17 -43 -91 -315 0
-18 -74 78 316 0
-18 -74 78 -316 0
-96 145 -29 317 0
-96 145 -29 -317 0
108 -112 102 318 0
108 -112 102 -318 0
144 111 -158 319 0
144 111 -158 -319 0
165 -144 42 320 0
165 -144 42 -320 0
80 -53 129 321 0
80 -53 129 -321 0
-119 124 -29 322 0
-119 124 -29 -322 0
126 -12 72 323 0
126 -12 72 -323 0
95 -159 151 324 0
95 -159 151 -324 0
-66 -161 3 325 0
-66 -161 3 -325 0
137 -81 99 326 0
137 -81 99 -326 0
152 157 -15 327 0
152 157 -15 -327 0
-65 -149 -14 328 0
-65 -149 -14 -328 0
77 -138 66 329 0
77 -138 66 -329 0
-141 146 330 331 0
-141 146 330 -331 0
-141 146 -330 332 0
-141 146 -330 -332 0
138 66 -77 333 0
138 66 -77 -333 0
23 -10 131 334 0
23 -10 131 -334 0
37 -128 150 335 0
37 -128 150 -335 0
18 -78 -74 336 0
18 -78 -74 -336 0
-59 -139 13 337 0
-59 -139 13 -337 0
87 -121 153 338 0
87 -121 153 -338 0
-38 -4 93 339 0
-38 -4 93 -339 0
-121 55 -104 340 0
-121 55 -104 -340 0
-125 76 -73 341 0
-125 76 -73 -341 0
-166 41 100 342 0
-166 41 100 -342 0
-97 73 7 343 0
-97 73 7 -343 0
-66 -3 161 344 0
-66 -3 161 -344 0
-148 158 46 345 0
-148 158 46 -345 0
68 -126 -1 346 0
68 -126 -1 -346 0
97 64 103 347 0
97 64 103 -347 0
27 163 -81 348 0
27 163 -81 -348 0
130 -10 -150 349 0
130 -10 -150 -349 0
145 99 -135 350 0
145 99 -135 -350 0
124 11 -58 351 0
124 11 -58 -351 0
120 161 24 352 0
120 161 24 -352 0
72 163 112 353 0
72 163 112 -353 0
-158 -111 -144 354 0
-158 -111 -144 -354 0
-106 -78 -40 355 0
-106 -78 -40 -355 0
-164 102 -86 356 0
-164 102 -86 -356 0
26 28 -46 357 0
26 28 -46 -357 0
-142 37 156 358 0
-142 37 156 -358 0
133 -31 117 359 0
133 -31 117 -359 0
145 29 96 360 0
145 29 96 -360 0
-92 -54 -113 361 0
-92 -54 -113 -361 0
154 -32 -23 362 0
154 -32 -23 -362 0
10 -130 -150 363 0
10 -130 -150 -363 0
27 -163 81 364 0
27 -163 81 -364 0
-120 161 -24 365 0
-120 161 -24 -365 0
35 -22 7 366 0
35 -22 7 -366 0
-107 -148 -166 367 0
-107 -148 -166 -367 0
105 -21 -39 368 0
105 -21 -39 -368 0
-27 61 9 369 0
-27 61 9 -369 0
2 80 93 370 0
2 80 93 -370 0
-112 -108 -102 371 0
-112 -108 -102 -371 0
-122 117 -101 372 0
-122 117 -101 -372 0
-72 -126 -12 373 0
-72 -126 -12 -373 0
163 -112 -72 374 0
163 -112 -72 -374 0
54 -75 -45 375 0
54 -75 -45 -375 0
67 18 -41 376 0
67 18 -41 -376 0
11 -33 160 377 0
11 -33 160 -377 0
106 52 34 378 0
106 52 34 -378 0
-79 -68 -42 379 0
-79 -68 -42 -379 0
-153 87 121 380 0
-153 87 121 -380 0
-7 73 97 381 0
-7 73 97 -381 0
159 19 -130 382 0
159 19 -130 -382 0
114 -88 -155 383 0
114 -88 -155 -383 0
49 -143 -142 384 0
49 -143 -142 -384 0
-39 -147 52 385 0
-39 -147 52 -385 0
34 20 135 386 0
34 20 135 -386 0
-140 -85 -17 387 0
-140 -85 -17 -387 0
-64 -84 40 388 0
-64 -84 40 -388 0
-136 -83 -56 389 0
-136 -83 -56 -389 0
15 152 -157 390 0
15 152 -157 -390 0
61 27 -9 391 0
61 27 -9 -391 0
17 85 -140 392 0
17 85 -140 -392 0
162 44 90 393 0
162 44 90 -393 0
-147 39 -52 394 0
-147 39 -52 -394 0
-5 49 -109 395 0
-5 49 -109 -395 0
-86 -149 51 396 0
-86 -149 51 -396 0
116 -129 -36 397 0
116 -129 -36 -397 0
27 -61 9 398 0
27 -61 9 -398 0
159 -19 130 399 0
159 -19 130 -399 0
74 78 18 400 0
74 78 18 -400 0
146 74 110 401 0
146 74 110 -401 0
-154 -32 23 402 0
-154 -32 23 -402 0
63 -19 -25 403 0
63 -19 -25 -403 0
-37 156 142 404 0
-37 156 142 -404 0
-34 -52 106 405 0
-34 -52 106 -405 0
118 -119 127 406 0
118 -119 127 -406 0
134 -55 133 407 0
134 -55 133 -407 0
38 -4 -93 408 0
38 -4 -93 -408 0
-165 77 151 409 0
-165 77 151 -409 0
-113 -50 -140 410 0
-113 -50 -140 -410 0
-95 -60 -16 411 0
-95 -60 -16 -411 0
166 41 -100 412 0
166 41 -100 -412 0
113 54 -92 413 0
113 54 -92 -413 0
-159 -151 -95 414 0
-159 -151 -95 -414 0
-25 -63 19 415 0
-25 -63 19 -415 0
59 57 -94 416 0
59 57 -94 -416 0
152 -111 -36 417 0
152 -111 -36 -417 0
-149 86 -51 418 0
-149 86 -51 -418 0
40 -78 106 419 0
40 -78 106 -419 0
-106 78 40 420 0
-106 78 40 -420 0
129 -80 53 421 0
129 -80 53 -421 0
-104 121 -55 422 0
-104 121 -55 -422 0
-126 -68 1 423 0
-126 -68 1 -423 0
50 113 -140 424 0
50 113 -140 -424 0
55 134 -133 425 0
55 134 -133 -425 0
85 140 -17 426 0
85 140 -17 -426 0
134 -82 -160 427 0
134 -82 -160 -427 0
-146 110 -74 428 0
-146 110 -74 -428 0
-31 132 79 429 0
-31 132 79 -429 0
-155 -114 88 430 0
-155 -114 88 -430 0
-46 -158 -148 431 0
-46 -158 -148 -431 0
67 41 -18 432 0
67 41 -18 -432 0
-26 46 28 433 0
-26 46 28 -433 0
-3 66 -161 434 0
-3 66 -161 -434 0
-29 -124 119 435 0
-29 -124 119 -435 0
139 -59 -13 436 0
139 -59 -13 -436 0
-12 65 114 437 0
-12 65 114 -437 0
-64 -97 103 438 0
-64 -97 103 -438 0
-135 -145 -99 439 0
-135 -145 -99 -439 0
-88 56 -127 440 0
-88 56 -127 -440 0
-89 -32 116 441 0
-89 -32 116 -441 0
49 5 109 442 0
49 5 109 -442 0
63 85 -84 443 0
63 85 -84 -443 0
-23 -154 32 444 0
-23 -154 32 -444 0
140 17 -85 445 0
140 17 -85 -445 0
139 61 71 446 0
139 61 71 -446 0
-43 128 123 447 0
-43 128 123 -447 0
83 136 -56 448 0
83 136 -56 -448 0
25 137 120 449 0
25 137 120 -449 0
-95 159 151 450 0
-95 159 151 -450 0
64 -84 -40 451 0
64 -84 -40 -451 0
14 65 -149 452 0
14 65 -149 -452 0
-16 -91 -21 453 0
-16 -91 -21 -453 0
-99 135 145 454 0
-99 135 145 -454 0
-157 -105 8 455 0
-157 -105 8 -455 0
1 50 -147 456 0
1 50 -147 -456 0
32 89 116 457 0
32 89 116 -457 0
-158 46 148 458 0
-158 46 148 -458 0
-119 -118 -127 459 0
-119 -118 -127 -459 0
-21 39 -105 460 0
-21 39 -105 -460 0
-166 107 148 461 0
-166 107 148 -461 0
100 166 -41 462 0
100 166 -41 -462 0
98 162 141 463 0
98 162 141 -463 0
-97 64 -103 464 0
-97 64 -103 -464 0
-110 -6 154 465 0
-110 -6 154 -465 0
-1 126 -68 466 0
-1 126 -68 -466 0
-75 96 4 467 0
-75 96 4 -467 0
122 44 28 468 0
122 44 28 -468 0
-129 53 80 469 0
-129 53 80 -469 0
-6 2 51 470 0
-6 2 51 -470 0
35 -57 -107 471 0
35 -57 -107 -471 0
93 4 38 472 0
93 4 38 -472 0
-153 -136 22 473 0
-153 -136 22 -473 0
-105 157 -8 474 0
-105 157 -8 -474 0
-90 -162 44 475 0
-90 -162 44 -475 0
142 143 49 476 0
142 143 49 -476 0
-4 -75 -96 477 0
-4 -75 -96 -477 0
-61 -71 139 478 0
-61 -71 139 -478 0
-122 44 -28 479 0
-122 44 -28 -479 0
125 73 76 480 0
125 73 76 -480 0
-83 38 62 481 0
-83 38 62 -481 0
58 -76 -138 482 0
58 -76 -138 -482 0
-117 -122 101 483 0
-117 -122 101 -483 0
-152 -111 36 484 0
-152 -111 36 -484 0
-66 -138 -77 485 0
-66 -138 -77 -485 0
131 92 48 486 0
131 92 48 -486 0
134 160 82 487 0
134 160 82 -487 0
15 45 -62 488 0
15 45 -62 -488 0
-156 87 -33 489 0
-156 87 -33 -489 0
-57 107 -35 490 0
-57 107 -35 -490 0
-50 147 1 491 0
-50 147 1 -491 0
158 111 -144 492 0
158 111 -144 -492 0
-146 141 493 494 0
-146 141 493 -494 0
-146 141 -493 495 0
-146 141 -493 -495 0
118 119 -127 496 0
118 119 -127 -496 0
165 77 -151 497 0
165 77 -151 -497 0
-76 -73 125 498 0
-76 -73 125 -498 0
-49 143 -142 499 0
-49 143 -142 -499 0
-69 123 -125 500 0
-69 123 -125 -500 0
-65 114 12 501 0
-65 114 12 -501 0
-164 100 -155 502 0
-164 100 -155 -502 0
-7 35 22 503 0
-7 35 22 -503 0
3 -48 60 504 0
3 -48 60 -504 0
128 -150 37 505 0
128 -150 37 -505 0
-42 -165 -144 506 0
-42 -165 -144 -506 0
62 -45 15 507 0
62 -45 15 -507 0
53 -115 -8 508 0
53 -115 -8 -508 0
135 99 -145 509 0
135 99 -145 -509 0
-38 4 -93 510 0
-38 4 -93 -510 0
40 64 84 511 0
40 64 84 -511 0
-91 43 -17 512 0
-91 43 -17 -512 0
75 96 -4 513 0
75 96 -4 -513 0
-132 -79 -31 514 0
-132 -79 -31 -514 0
-49 -5 109 515 0
-49 -5 109 -515 0
-153 -87 -121 516 0
-153 -87 -121 -516 0
58 76 138 517 0
58 76 138 -517 0
-165 -77 -151 518 0
-165 -77 -151 -518 0
-58 138 -76 519 0
-58 138 -76 -519 0
-82 -47 90 520 0
-82 -47 90 -520 0
36 129 116 521 0
36 129 116 -521 0
-88 -56 127 522 0
-88 -56 127 -522 0
120 -137 -25 523 0
120 -137 -25 -523 0
-66 138 77 524 0
-66 138 77 -524 0
-160 -134 82 525 0
-160 -134 82 -525 0
132 -143 101 526 0
132 -143 101 -526 0
-89 32 -116 527 0
-89 32 -116 -527 0
-3 -60 -48 528 0
-3 -60 -48 -528 0
-26 -9 69 529 0
-26 -9 69 -529 0
-27 -61 -9 530 0
-27 -61 -9 -530 0
155 -164 -100 531 0
155 -164 -100 -531 0
102 86 164 532 0
102 86 164 -532 0
62 -38 83 533 0
62 -38 83 -533 0
-11 -124 -58 534 0
-11 -124 -58 -534 0
-33 -160 -11 535 0
-33 -160 -11 -535 0
130 19 -159 536 0
130 19 -159 -536 0
-3 60 48 537 0
-3 60 48 -537 0
54 -113 92 538 0
54 -113 92 -538 0
30 109 115 539 0
30 109 115 -539 0
-139 59 -13 540 0
-139 59 -13 -540 0
-159 -130 -19 541 0
-159 -130 -19 -541 0
-73 7 97 542 0
-73 7 97 -542 0
-87 33 -156 543 0
-87 33 -156 -543 0
86 -164 -102 544 0
86 -164 -102 -544 0
-101 143 132 545 0
-101 143 132 -545 0
-13 67 104 546 0
-13 67 104 -546 0
-2 -80 93 547 0
-2 -80 93 -547 0
62 45 -15 548 0
62 45 -15 -548 0
-132 101 143 549 0
-132 101 143 -549 0
-106 -34 52 550 0
-106 -34 52 -550 0
95 16 -60 551 0
95 16 -60 -551 0
161 66 3 552 0
161 66 3 -552 0
84 -85 63 553 0
84 -85 63 -553 0
65 12 -114 554 0
65 12 -114 -554 0
153 -87 121 555 0
153 -87 121 -555 0
-116 -129 36 556 0
-116 -129 36 -556 0
-9 -69 26 557 0
-9 -69 26 -557 0
-67 -41 -18 558 0
-67 -41 -18 -558 0
140 50 -113 559 0
140 50 -113 -559 0
8 115 53 560 0
8 115 53 -560 0
153 -22 -136 561 0
153 -22 -136 -561 0
151 -77 165 562 0
151 -77 165 -562 0
-139 -71 61 563 0
-139 -71 61 -563 0
-37 128 150 564 0
-37 128 150 -564 0
112 108 -102 565 0
112 108 -102 -565 0
-44 -122 28 566 0
-44 -122 28 -566 0
-133 -117 -31 567 0
-133 -117 -31 -567 0
3 -60 48 568 0
3 -60 48 -568 0
31 -117 133 569 0
31 -117 133 -569 0
91 21 -16 570 0
91 21 -16 -570 0
118 -94 14 571 0
118 -94 14 -571 0
-30 20 -98 572 0
-30 20 -98 -572 0
-23 -10 -131 573 0
-23 -10 -131 -573 0
157 -152 15 574 0
157 -152 15 -574 0
144 -111 158 575 0
144 -111 158 -575 0
38 -62 83 576 0
38 -62 83 -576 0
70 24 47 577 0
70 24 47 -577 0
-82 -90 47 578 0
-82 -90 47 -578 0
-124 29 -119 579 0
-124 29 -119 -579 0
6 -2 51 580 0
6 -2 51 -580 0
-100 -166 -41 581 0
-100 -166 -41 -581 0
-128 -123 -43 582 0
-128 -123 -43 -582 0
135 -34 -20 583 0
135 -34 -20 -583 0
-147 -50 -1 584 0
-147 -50 -1 -584 0
103 -71 5 585 0
103 -71 5 -585 0
-134 -133 -55 586 0
-134 -133 -55 -586 0
99 81 -137 587 0
99 81 -137 -587 0
115 -30 -109 588 0
115 -30 -109 -588 0
-148 107 166 589 0
-148 107 166 -589 0
-22 -153 136 590 0
-22 -153 136 -590 0
-90 162 -44 591 0
-90 162 -44 -591 0
14 149 -65 592 0
14 149 -65 -592 0
-49 -109 5 593 0
-49 -109 5 -593 0
-81 -99 -137 594 0
-81 -99 -137 -594 0
72 -126 12 595 0
72 -126 12 -595 0
160 -82 -134 596 0
160 -82 -134 -596 0
25 19 63 597 0
25 19 63 -597 0
-98 141 -162 598 0
-98 141 -162 -598 0
-152 -157 -15 599 0
-152 -157 -15 -599 0
-162 98 -141 600 0
-162 98 -141 -600 0
-20 -30 98 601 0
-20 -30 98 -601 0
148 158 -46 602 0
148 158 -46 -602 0
108 -89 70 603 0
108 -89 70 -603 0
-102 -86 164 604 0
-102 -86 164 -604 0
21 39 105 605 0
21 39 105 -605 0
164 155 100 606 0
164 155 100 -606 0
-67 104 13 607 0
-67 104 13 -607 0
-35 7 22 608 0
-35 7 22 -608 0
68 42 -79 609 0
68 42 -79 -609 0
120 -24 -161 610 0
120 -24 -161 -610 0
105 8 157 611 0
105 8 157 -611 0
90 -44 -162 612 0
90 -44 -162 -612 0

